&INPUTPH
    prefix = 'silicon',
    outdir = './tmp',
    fildyn = 'matdyn',
    tr2_ph = 1.0000000000d-12,
    ldisp = .true.,
    nq1 = 2,
    nq2 = 2,
    nq3 = 2,
    epsil = .true.,
    lraman = .false.,
/
