&CONTROL
    calculation = 'scf',
    prefix = 'silicon',
    outdir = './tmp',
    pseudo_dir = './pseudo',
    verbosity = 'low',
    restart_mode = 'from_scratch',
/

&SYSTEM
    ibrav = 0,
    nat = 2,
    ntyp = 1,
    ecutwfc = 40.0,
    ecutrho = 320.0,
    occupations = 'fixed',
    input_dft = 'hse',
    nqx1 = 2,
    nqx2 = 2,
    nqx3 = 2,
    x_gamma_extrapolation = .true.,
    exx_div_treatment = 'gyftopoulos',
/

&ELECTRONS
    conv_thr = 1.0000000000d-08,
    mixing_beta = 0.7,
    mixing_mode = 'plain',
    diagonalization = 'david',
    electron_maxstep = 100,
/

ATOMIC_SPECIES
  Si  28.0855  Si.pbe-n-rrkjus_psl.1.0.0.UPF

ATOMIC_POSITIONS {crystal}
  Si      0.0000000000      0.0000000000      0.0000000000
  Si      0.2500000000      0.2500000000      0.2500000000

K_POINTS {automatic}
  8 8 8  0 0 0

CELL_PARAMETERS {angstrom}
      0.0000000000      2.7150000000      2.7150000000
      2.7150000000      0.0000000000      2.7150000000
      2.7150000000      2.7150000000      0.0000000000
